min: 1 x1 + 1 x2 + 1 x3 + 1 x4 + 1 x5 + 1 x6 + 1 x7 + 1 x8 + 1 x9 + 1 x10 + 1 x11 + 1 x12 + 1 x13 + 1 x14 + 1 x15 + 1 x16 + 1 x17 + 1 x18 + 1 x19 + 1 x20 + 1 x21 + 1 x22 + 1 x23 + 1 x24 + 1 x25 + 1 x26 + 1 x27 + 1 x28 + 1 x29 + 1 x30 + 1 x31 + 1 x32 + 1 x33 + 1 x34 + 1 x35 + 1 x36 + 1 x37 + 1 x38 + 1 x39 + 1 x40 + 1 x41 + 1 x42 + 1 x43 + 1 x44 + 1 x45;

r1: x18 + x36 + x17 + x30 + x26 + x41 + x6 >= 1;
r2: x14 + x17 + x27 + x16 + x35 >= 1;
r3: x41 + x42 + x44 >= 1;
r4: x43 + x21 + x16 + x23 + x45 + x13 + x29 + x33 >= 1;
r5: x8 + x42 + x31 + x13 + x27 + x41 + x40 >= 1;
r6: x29 + x12 + x18 + x41 + x40 + x14 >= 1;
r7: x36 + x42 + x13 + x25 + x39 >= 1;
r8: x23 + x22 + x38 + x26 + x28 + x9 + x1 >= 1;
r9: x6 + x33 >= 1;
r10: x8 + x18 + x36 + x31 + x27 + x13 + x3 + x26 >= 1;
r11: x31 >= 1;
r12: x4 + x40 + x27 + x33 + x3 >= 1;
r13: x19 >= 1;
r14: x14 + x18 + x9 + x45 + x35 + x29 + x17 >= 1;
r15: x15 + x14 + x11 + x4 + x5 + x20 + x39 >= 1;
r16: x42 + x29 + x23 + x7 + x33 + x15 + x31 + x6 >= 1;
r17: x30 + x37 + x9 + x15 + x39 >= 1;
r18: x24 + x33 + x21 + x31 + x6 + x18 + x30 + x19 >= 1;
r19: x13 + x33 + x38 + x26 + x31 + x1 >= 1;
r20: x9 + x15 + x27 + x45 + x18 >= 1;
r21: x39 + x38 + x26 + x25 + x23 + x19 + x20 >= 1;
r22: x2 + x43 + x3 + x36 + x13 >= 1;
r23: x18 + x19 + x6 + x30 + x34 + x43 + x10 + x36 >= 1;
r24: x38 + x39 + x24 + x15 >= 1;
r25: x35 + x36 + x21 + x26 + x5 + x16 + x1 >= 1;
r26: x34 + x41 + x7 + x9 + x24 + x18 + x16 + x30 >= 1;
r27: x7 + x28 + x11 >= 1;
r28: x22 + x29 + x8 >= 1;
r29: x42 >= 1;
r30: x2 + x27 + x25 + x37 + x33 + x13 + x40 >= 1;
r31: x38 + x29 + x24 + x44 >= 1;
r32: x25 + x5 + x11 + x33 >= 1;
r33: x4 + x29 + x20 + x9 + x35 + x10 + x11 + x43 >= 1;
r34: x6 + x22 + x30 >= 1;
r35: x33 + x15 + x42 + x45 + x36 + x13 + x31 >= 1;
r36: x17 + x22 + x37 + x10 + x1 + x12 + x24 + x2 >= 1;
r37: x1 + x22 + x44 + x2 >= 1;
r38: x37 + x1 + x29 + x33 + x34 + x16 >= 1;
r39: x24 + x21 >= 1;
r40: x27 + x34 + x32 + x11 >= 1;
r41: x9 + x21 + x35 + x13 >= 1;
r42: x40 + x27 + x31 >= 1;
r43: x42 + x27 >= 1;
r44: x29 + x41 + x40 + x25 + x17 >= 1;
r45: x12 + x23 + x24 + x20 + x11 + x34 + x38 + x6 >= 1;
r46: x23 + x16 + x11 + x10 >= 1;
r47: x37 + x38 + x34 + x26 + x4 + x24 + x6 + x40 >= 1;
r48: x7 + x18 + x22 + x4 + x2 >= 1;
r49: x38 + x14 + x28 + x5 + x42 >= 1;
r50: x16 + x15 + x19 + x27 >= 1;
r51: x22 + x41 + x43 + x13 >= 1;
r52: x32 + x43 + x8 + x11 >= 1;
r53: x34 + x13 + x16 + x28 + x45 + x38 + x31 + x17 >= 1;
r54: x44 + x26 + x2 + x28 + x45 + x5 >= 1;
r55: x41 + x36 + x35 >= 1;
r56: x43 + x31 + x33 + x10 + x41 + x34 + x39 >= 1;
r57: x10 + x43 + x11 + x39 + x42 + x30 + x4 >= 1;
r58: x24 + x42 + x37 + x16 + x21 >= 1;
r59: x34 >= 1;
r60: x41 + x22 + x38 + x42 >= 1;
r61: x2 + x36 + x39 + x41 >= 1;
r62: x37 + x26 + x6 >= 1;
r63: x16 + x28 + x31 >= 1;
r64: x14 + x21 + x20 + x12 >= 1;
r65: x30 + x25 + x43 + x33 >= 1;
r66: x42 + x37 + x40 + x29 >= 1;
r67: x4 + x30 + x6 + x11 + x36 + x20 + x37 >= 1;
r68: x10 + x28 + x32 + x13 >= 1;
r69: x1 + x37 + x9 + x20 + x22 >= 1;
r70: x8 + x40 + x28 >= 1;
r71: x42 + x39 + x19 + x2 + x41 + x8 + x32 >= 1;
r72: x7 + x21 + x31 + x36 + x16 + x25 >= 1;
r73: x11 + x27 + x21 + x17 + x10 + x15 >= 1;
r74: x5 + x4 + x42 + x45 + x43 + x22 + x7 + x28 >= 1;
r75: x10 + x32 + x9 + x21 + x6 + x23 + x1 + x42 >= 1;
r76: x14 >= 1;
r77: x35 + x26 + x3 + x31 + x21 + x6 + x9 + x33 >= 1;
r78: x1 + x19 + x41 + x16 + x13 + x2 + x15 >= 1;
r79: x1 >= 1;
r80: x31 + x28 >= 1;
r81: x32 + x20 + x21 >= 1;
r82: x12 + x34 + x10 + x19 + x11 >= 1;
r83: x12 + x43 + x4 + x40 + x6 + x32 + x13 + x20 >= 1;
r84: x24 + x12 + x8 + x37 + x6 + x19 + x3 + x22 >= 1;
r85: x6 + x21 + x28 + x2 >= 1;
r86: x45 >= 1;
r87: x43 + x41 + x32 + x33 + x38 >= 1;
r88: x22 + x33 + x14 + x11 + x20 + x21 + x45 + x4 >= 1;
r89: x44 >= 1;
r90: x35 + x40 + x10 + x1 + x9 >= 1;
r91: x21 + x28 + x2 + x33 + x1 + x22 + x9 >= 1;
r92: x23 + x12 + x33 + x26 + x40 >= 1;
r93: x12 + x44 + x4 + x27 + x35 + x38 >= 1;
r94: x35 + x13 + x28 + x32 + x4 + x19 + x36 >= 1;
r95: x27 + x12 + x32 + x10 + x41 + x28 + x39 + x18 >= 1;
r96: x10 >= 1;
r97: x22 + x8 + x19 + x2 >= 1;
r98: x26 >= 1;
r99: x26 + x23 >= 1;
r100: x32 >= 1;
r101: x25 + x40 + x32 + x34 + x7 >= 1;
r102: x22 + x1 + x23 + x43 + x5 + x44 + x35 >= 1;
r103: x17 + x4 + x8 >= 1;
r104: x35 + x43 + x27 + x18 + x45 + x41 + x1 + x4 >= 1;
r105: x9 + x25 >= 1;
r106: x32 + x28 + x26 + x18 >= 1;
r107: x10 + x20 + x31 + x36 >= 1;
r108: x4 + x17 + x26 + x11 + x20 >= 1;
r109: x16 + x3 + x1 + x22 + x23 >= 1;
r110: x41 >= 1;
r111: x13 + x42 + x20 + x43 + x28 + x21 + x15 + x45 >= 1;
r112: x5 + x42 + x24 + x1 + x10 + x3 + x41 >= 1;
r113: x10 + x33 + x16 + x9 + x17 + x1 >= 1;
r114: x40 + x30 + x17 + x29 + x19 + x35 + x12 >= 1;
r115: x12 + x2 + x43 + x30 + x21 + x24 >= 1;
r116: x31 + x26 >= 1;
r117: x16 + x36 + x32 + x6 + x37 + x21 >= 1;
r118: x25 + x20 + x3 + x8 + x31 + x44 >= 1;
r119: x43 + x21 + x39 + x19 + x37 + x20 >= 1;
r120: x42 + x27 + x45 + x43 >= 1;
r121: x10 >= 1;
r122: x27 + x35 + x11 + x30 + x6 + x7 + x31 + x43 >= 1;
r123: x8 + x26 + x41 >= 1;
r124: x30 + x26 + x18 + x36 + x4 >= 1;
r125: x1 + x35 + x27 + x6 + x32 + x24 + x12 + x14 >= 1;
r126: x24 + x35 + x19 + x40 + x16 + x34 + x43 >= 1;
r127: x31 + x28 + x5 + x41 + x26 + x16 >= 1;
r128: x17 + x43 + x15 >= 1;
r129: x18 + x38 + x42 + x13 + x29 >= 1;
r130: x43 + x7 + x23 + x13 + x27 >= 1;
r131: x22 + x33 + x20 + x36 + x28 + x13 + x15 >= 1;
r132: x11 + x19 + x45 >= 1;
r133: x28 + x2 + x33 + x40 + x41 + x21 >= 1;
r134: x1 + x33 + x26 >= 1;
r135: x28 + x19 + x20 >= 1;
r136: x19 + x5 + x36 + x12 + x2 + x16 + x14 + x37 >= 1;
r137: x20 + x44 + x23 + x37 + x18 + x41 + x19 + x14 >= 1;
r138: x41 + x36 + x42 + x6 + x2 >= 1;
r139: x43 >= 1;
r140: x27 + x1 + x6 >= 1;
r141: x31 + x29 + x8 + x19 + x27 + x42 >= 1;
r142: x42 + x30 >= 1;
r143: x24 + x19 + x38 + x25 + x14 >= 1;
r144: x14 + x42 >= 1;
r145: x17 + x44 + x23 + x13 >= 1;
r146: x32 + x1 + x43 + x34 + x18 >= 1;
r147: x15 + x18 + x4 + x33 + x28 + x30 + x14 + x26 >= 1;
r148: x10 + x42 + x27 + x6 + x24 + x4 + x1 + x2 >= 1;
r149: x29 >= 1;
r150: x43 + x36 + x26 + x13 + x8 >= 1;
r151: x38 + x22 + x30 + x1 >= 1;
r152: x43 >= 1;
r153: x29 + x28 + x26 + x45 >= 1;
r154: x17 + x20 >= 1;
r155: x21 + x25 + x20 >= 1;
r156: x12 >= 1;
r157: x31 + x36 + x28 >= 1;
r158: x39 + x17 + x44 + x9 + x4 >= 1;
r159: x12 + x3 + x4 + x28 + x19 + x2 + x35 + x17 >= 1;
r160: x31 + x34 + x21 + x12 + x22 + x42 >= 1;
r161: x31 + x22 + x9 + x45 + x26 + x41 + x29 >= 1;
r162: x29 + x5 + x2 + x16 + x21 + x25 >= 1;
r163: x12 + x4 + x16 + x17 + x40 >= 1;
r164: x26 + x13 + x25 + x14 + x9 + x34 >= 1;
r165: x30 + x39 + x24 + x33 >= 1;
r166: x18 >= 1;
r167: x36 + x37 + x41 + x5 + x27 + x26 >= 1;
r168: x31 + x5 + x23 + x43 + x11 + x17 + x26 + x3 >= 1;
r169: x1 + x37 >= 1;
r170: x8 + x36 + x16 + x4 + x30 + x41 + x42 + x28 >= 1;
r171: x39 + x41 + x1 + x34 >= 1;
r172: x4 + x29 + x40 >= 1;
r173: x23 + x21 + x13 + x42 + x25 + x19 + x31 >= 1;
r174: x8 + x15 + x27 + x3 + x13 >= 1;
r175: x3 + x23 + x41 >= 1;
r176: x41 + x34 + x17 + x15 >= 1;
r177: x27 + x36 + x1 + x30 + x11 + x21 + x29 + x41 >= 1;
r178: x27 + x33 >= 1;
r179: x3 + x11 + x14 >= 1;
r180: x28 + x23 + x14 + x1 + x43 + x4 + x16 + x25 >= 1;
r181: x5 + x28 + x38 + x12 + x45 >= 1;
r182: x27 + x42 + x34 + x41 + x44 + x5 >= 1;
r183: x4 + x40 + x11 + x22 + x26 + x38 >= 1;
r184: x2 + x39 + x42 + x29 >= 1;
r185: x13 >= 1;
r186: x17 >= 1;
r187: x28 + x35 + x12 + x14 + x9 + x15 + x31 + x27 >= 1;
r188: x20 + x44 + x39 + x21 + x28 + x8 + x33 + x12 >= 1;
r189: x10 + x32 + x30 + x35 + x12 + x26 + x23 + x18 >= 1;
r190: x26 + x18 + x38 + x33 + x10 + x9 + x16 + x43 >= 1;
r191: x38 + x23 >= 1;
r192: x12 + x45 + x21 + x33 >= 1;
r193: x20 + x40 + x44 >= 1;
r194: x10 + x23 + x14 + x6 + x7 >= 1;
r195: x35 >= 1;
r196: x10 + x22 + x25 + x2 + x13 + x44 >= 1;
r197: x25 >= 1;
r198: x20 + x19 + x1 >= 1;
r199: x9 + x44 + x42 + x24 + x2 >= 1;
r200: x45 + x41 >= 1;
r201: x27 + x8 + x22 + x37 + x34 + x42 + x29 >= 1;
r202: x19 + x28 + x12 + x41 + x9 >= 1;
r203: x39 >= 1;
r204: x40 >= 1;
r205: x3 + x25 + x30 + x26 + x22 + x45 + x29 >= 1;
r206: x20 + x33 + x34 + x11 >= 1;
r207: x16 + x34 + x35 + x25 >= 1;
r208: x2 + x7 >= 1;
r209: x2 + x39 + x16 + x41 + x42 + x7 >= 1;
r210: x8 + x28 + x38 + x39 >= 1;
r211: x36 + x15 + x43 + x23 >= 1;
r212: x44 + x37 + x9 + x34 + x42 >= 1;
r213: x41 + x21 + x13 + x25 + x42 + x12 + x20 + x16 >= 1;
r214: x26 >= 1;
r215: x25 + x33 + x2 >= 1;
r216: x37 + x10 + x43 + x3 >= 1;
r217: x14 + x28 + x17 >= 1;
r218: x38 + x3 + x8 + x35 >= 1;
r219: x39 + x34 + x37 + x27 >= 1;
r220: x8 + x39 + x17 + x42 + x12 + x44 >= 1;
r221: x38 + x39 + x10 + x37 + x20 + x5 + x4 + x41 >= 1;
r222: x5 + x30 + x1 + x45 + x31 + x9 + x18 + x34 >= 1;
r223: x22 + x30 + x31 + x9 + x27 + x29 + x14 + x38 >= 1;
r224: x31 + x42 >= 1;
r225: x44 + x45 + x14 + x30 + x4 >= 1;
r226: x6 + x23 + x45 + x8 + x42 >= 1;
r227: x19 >= 1;
r228: x34 + x43 + x7 >= 1;
r229: x34 + x29 + x41 + x22 + x21 + x16 >= 1;
r230: x2 + x26 + x30 + x32 + x20 >= 1;
r231: x3 + x21 + x8 + x31 + x26 + x44 + x16 + x4 >= 1;
r232: x6 + x3 + x44 + x41 >= 1;
r233: x41 + x20 + x12 + x36 + x23 + x38 + x27 + x17 >= 1;
r234: x23 + x28 + x18 + x7 >= 1;
r235: x38 + x20 + x9 + x33 + x1 + x6 >= 1;
r236: x4 + x13 >= 1;
r237: x20 + x28 + x11 + x4 + x16 + x43 >= 1;
r238: x28 + x34 + x30 + x44 + x2 >= 1;
r239: x13 + x20 + x19 + x37 >= 1;
r240: x18 >= 1;
r241: x34 + x2 + x36 + x19 + x41 + x37 >= 1;
r242: x31 + x20 + x24 + x45 >= 1;
r243: x24 + x32 + x16 + x9 + x39 + x25 + x27 >= 1;
r244: x22 + x13 + x34 + x15 + x20 + x24 + x4 >= 1;
r245: x11 + x2 + x38 + x42 + x36 + x33 >= 1;
r246: x10 + x37 + x12 + x7 + x45 + x8 + x5 >= 1;
r247: x36 + x1 + x14 + x32 + x43 >= 1;
r248: x17 + x12 + x32 >= 1;
r249: x15 >= 1;
r250: x26 + x39 + x38 >= 1;
r251: x35 + x45 + x13 + x17 + x44 + x31 + x7 >= 1;
r252: x11 + x24 + x19 + x44 + x30 + x16 >= 1;
r253: x2 + x29 + x38 + x35 + x36 >= 1;
r254: x38 + x8 + x29 + x21 + x28 >= 1;
r255: x42 >= 1;
r256: x29 + x25 + x30 >= 1;
r257: x29 + x6 >= 1;
r258: x3 + x37 + x24 >= 1;
r259: x12 + x38 + x22 + x35 + x18 + x28 + x16 >= 1;
r260: x10 + x1 + x14 + x11 >= 1;
r261: x35 >= 1;
r262: x3 + x23 + x2 + x32 + x37 >= 1;
r263: x8 + x21 + x4 + x17 >= 1;
r264: x19 + x41 + x6 + x29 + x20 + x43 + x22 + x8 >= 1;
r265: x14 + x1 + x7 + x40 + x25 + x24 + x26 + x42 >= 1;
r266: x39 + x17 + x5 >= 1;
r267: x35 + x30 + x26 + x8 + x1 >= 1;
r268: x8 >= 1;
r269: x25 + x16 + x9 + x11 + x31 + x27 + x10 + x26 >= 1;
r270: x39 + x16 + x3 >= 1;
r271: x15 + x32 + x20 >= 1;
r272: x9 + x3 + x33 >= 1;
r273: x27 >= 1;
r274: x31 + x40 + x15 + x23 >= 1;
r275: x2 + x4 + x23 + x27 + x17 + x1 >= 1;
r276: x37 + x9 + x42 + x34 + x40 + x10 >= 1;
r277: x20 + x4 + x39 + x25 + x19 + x27 + x7 >= 1;
r278: x39 + x42 + x24 + x30 >= 1;
r279: x16 + x30 + x10 >= 1;
r280: x34 >= 1;
r281: x10 + x32 >= 1;
r282: x18 + x29 + x38 + x17 + x5 + x20 + x43 >= 1;
r283: x20 + x27 >= 1;
r284: x33 + x4 >= 1;
r285: x13 + x2 >= 1;
r286: x1 + x34 + x45 + x14 + x22 + x40 + x27 >= 1;
r287: x20 >= 1;
r288: x9 + x11 + x29 + x42 + x20 >= 1;
r289: x39 + x28 + x12 + x14 + x17 + x38 + x40 + x34 >= 1;
r290: x8 + x26 + x16 + x6 >= 1;
r291: x32 + x8 + x35 + x37 + x33 + x16 >= 1;
r292: x19 + x3 + x23 + x45 >= 1;
r293: x7 >= 1;
r294: x45 >= 1;
r295: x26 + x27 + x2 + x11 + x25 + x6 >= 1;
r296: x23 + x14 + x11 >= 1;
r297: x43 + x27 + x35 >= 1;
r298: x35 + x26 + x33 >= 1;
r299: x28 >= 1;
r300: x6 + x9 + x25 + x20 + x29 + x26 + x2 >= 1;
r301: x38 + x25 >= 1;
r302: x21 + x37 >= 1;
r303: x37 + x38 + x8 + x9 + x11 + x44 + x27 + x2 >= 1;
r304: x20 + x22 + x38 + x10 + x31 >= 1;
r305: x33 + x20 + x30 + x42 + x23 + x9 + x14 + x6 >= 1;
r306: x45 + x15 + x4 + x43 + x41 + x27 >= 1;
r307: x26 >= 1;
r308: x44 + x42 + x40 + x27 >= 1;
r309: x18 + x37 + x11 + x23 + x36 + x9 + x44 >= 1;
r310: x21 + x23 + x7 + x2 + x9 + x22 + x4 >= 1;
r311: x7 + x29 + x25 >= 1;
r312: x16 >= 1;
r313: x32 + x15 >= 1;
r314: x20 + x1 + x44 >= 1;
r315: x25 + x8 + x2 + x39 + x19 >= 1;
r316: x45 + x10 + x23 + x30 + x32 + x3 + x26 + x25 >= 1;
r317: x29 + x41 + x28 + x35 + x6 >= 1;
r318: x5 + x11 >= 1;
r319: x39 + x24 >= 1;
r320: x18 >= 1;
r321: x5 + x1 + x29 + x12 + x19 + x8 + x23 + x43 >= 1;
r322: x26 + x13 + x27 >= 1;
r323: x8 + x9 + x36 >= 1;
r324: x12 >= 1;
r325: x26 + x37 + x35 + x8 + x38 >= 1;
r326: x42 + x15 + x28 + x26 + x21 >= 1;
r327: x6 + x26 + x2 + x27 + x33 + x15 + x45 + x25 >= 1;
r328: x37 >= 1;
r329: x23 + x28 + x12 + x30 + x41 + x45 >= 1;
r330: x33 + x17 + x8 + x14 + x30 + x22 + x31 + x34 >= 1;
r331: x12 + x21 + x27 + x33 + x8 + x26 >= 1;
r332: x34 + x12 + x37 + x3 + x8 + x13 + x43 + x15 >= 1;
r333: x31 + x8 + x37 + x1 + x3 + x13 >= 1;
r334: x14 + x17 + x28 + x32 >= 1;
r335: x27 + x2 + x29 + x32 + x9 + x42 + x16 + x11 >= 1;
r336: x13 + x4 + x27 + x8 + x23 >= 1;
r337: x3 + x41 >= 1;
r338: x18 + x36 + x7 >= 1;
r339: x8 >= 1;
r340: x24 + x36 >= 1;
r341: x28 + x41 + x36 + x17 + x1 >= 1;
r342: x21 + x8 + x28 >= 1;
r343: x42 + x32 + x13 + x17 >= 1;
r344: x39 + x11 + x17 + x19 >= 1;
r345: x5 + x7 >= 1;
r346: x6 + x17 + x38 + x16 + x35 + x3 + x32 >= 1;
r347: x35 + x23 >= 1;
r348: x42 + x15 + x24 + x19 + x27 + x25 + x7 >= 1;
r349: x17 >= 1;
r350: x40 >= 1;
r351: x37 + x15 + x6 + x45 + x13 + x33 + x25 >= 1;
r352: x34 + x1 + x7 + x11 + x24 >= 1;
r353: x14 + x34 + x35 + x26 + x31 >= 1;
r354: x45 + x44 + x5 >= 1;
r355: x19 + x10 + x20 + x7 + x30 + x25 + x26 >= 1;
r356: x17 + x32 >= 1;
r357: x37 + x38 + x39 + x43 + x11 + x35 >= 1;
r358: x37 + x7 + x8 >= 1;
r359: x25 + x17 + x18 >= 1;
r360: x3 + x43 + x31 + x42 + x6 + x15 + x25 + x29 >= 1;
r361: x34 + x25 >= 1;
r362: x14 >= 1;
r363: x38 + x19 + x12 + x7 + x15 >= 1;
r364: x7 + x20 + x5 >= 1;
r365: x2 + x18 + x26 + x20 + x42 + x45 + x37 + x39 >= 1;
r366: x36 + x26 + x11 + x8 >= 1;
r367: x6 + x40 >= 1;
r368: x2 + x22 + x3 >= 1;
r369: x28 + x39 + x42 + x23 + x11 + x19 >= 1;
r370: x26 >= 1;
r371: x42 >= 1;
r372: x36 + x30 + x32 + x12 + x13 + x18 + x8 + x25 >= 1;
r373: x4 + x30 + x36 + x28 + x22 + x8 + x13 >= 1;
r374: x6 >= 1;
r375: x27 + x9 + x37 + x13 + x44 + x14 >= 1;
r376: x1 + x19 >= 1;
r377: x31 + x38 + x25 + x7 >= 1;
r378: x9 >= 1;
r379: x14 + x35 + x4 + x27 + x41 + x16 >= 1;
r380: x20 >= 1;
r381: x22 + x8 >= 1;
r382: x38 + x32 + x40 + x11 + x41 + x29 >= 1;
r383: x23 + x27 >= 1;
r384: x41 + x13 + x32 >= 1;
r385: x29 + x41 + x26 + x15 >= 1;
r386: x6 + x25 + x18 + x1 >= 1;
r387: x14 + x36 + x1 + x9 + x24 + x18 >= 1;
r388: x39 + x10 + x26 + x36 >= 1;
r389: x2 + x32 + x25 + x26 + x24 >= 1;
r390: x6 + x22 >= 1;
r391: x18 + x9 + x42 + x28 + x32 + x44 + x19 >= 1;
r392: x12 >= 1;
r393: x13 + x19 + x10 + x31 + x4 + x42 >= 1;
r394: x2 + x8 + x35 + x33 + x43 + x16 + x34 >= 1;
r395: x44 >= 1;
r396: x35 + x31 + x44 + x24 + x30 + x10 >= 1;
r397: x3 + x12 + x14 + x21 + x34 + x15 + x28 >= 1;
r398: x20 + x9 + x32 + x10 + x40 + x6 + x25 + x17 >= 1;
r399: x18 + x35 + x2 >= 1;
r400: x29 + x40 + x4 + x1 >= 1;

bin x1, x2, x3, x4, x5, x6, x7, x8, x9, x10, x11, x12, x13, x14, x15, x16, x17, x18, x19, x20, x21, x22, x23, x24, x25, x26, x27, x28, x29, x30, x31, x32, x33, x34, x35, x36, x37, x38, x39, x40, x41, x42, x43, x44, x45;
